2
30
63
132 100
18 39 4 0
13 49 2 0
27 51 1 0
65 31 3 0
45 27 2 0
69 21 4 0
21 63 2 0
54 41 2 0
41 31 1 0
37 22 1 0
29 54 1 0
47 31 2 0
18 31 3 0
21 17 1 0
19 53 1 0
13 41 4 0
37 12 5 0
19 29 2 0
67 17 1 0
49 31 3 0
31 43 1 0
30 41 2 0
29 39 1 0
28 38 2 0
27 37 3 0
26 36 2 0
25 35 1 0
24 34 1 0
33 23 2 0
22 32 3 0

